% Logging successfully configured
%%%mzn-stat: initTime=0.079092843
%%%mzn-stat: objective=708
%%%mzn-stat: nodes=90
%%%mzn-stat: restarts=0
%%%mzn-stat: peakDepth=89
%%%mzn-stat: solveTime=0.000704433
%%%mzn-stat: variables=230
%%%mzn-stat: propagators=144
%%%mzn-stat: failures=1
%%%mzn-stat: propagations=485
%%%mzn-stat: nogoods=1
%%%mzn-stat: numAtomicConstraintsPropagated=0
%%%mzn-stat: circuitNumber1PropagationsTotal=22
%%%mzn-stat: circuitNumber1CircuitConflicts=1
%%%mzn-stat: circuitNumber1AlldiffConflicts=0
%%%mzn-stat: circuitNumber1TotalFixedEdgesAtConflict=11
%%%mzn-stat: circuitNumber1NumberOfConflicts=1
%%%mzn-stat: circuitNumber1GacPrunings=50
%%%mzn-stat: circuitNumber1PropagationsThatGacPruned=10
%%%mzn-stat: circuitNumber1TotalPruningHallSetSize=231
%%%mzn-stat: circuitNumber1NumberOfPruningExplanations=50
%%%mzn-stat: circuitNumber1MaxPruningHallSetSize=17
%%%mzn-stat: circuitNumber1TotalSccSizeAtPruning=105
%%%mzn-stat: circuitNumber1NumberOfSccPruningCalls=10
%%%mzn-stat: circuitNumber1TotalVarsInvolvedInPruning=40
%%%mzn-stat: circuitNumber1MaxValuesPrunedFromSingleVar=4
%%%mzn-stat: circuitNumber1HallCircuitChecks=21
%%%mzn-stat: circuitNumber1HallCircuitPrunings=6
%%%mzn-stat: circuitNumber1CircuitPreventPrunings=13
%%%mzn-stat: AverageConflictSize=11
%%%mzn-stat: NumUnitNogoodsLearned=0
%%%mzn-stat: AverageLearnedNogoodLength=4
%%%mzn-stat: AverageBacktrackAmount=0
%%%mzn-stat: AverageLbd=4
%%%mzn-stat: 2AutonomousSearchNumBackupCalled=83
%%%mzn-stat: 2AutonomousSearchNumPredicatesRemoved=0
%%%mzn-stat: 2AutonomousSearchNumCalls=84
%%%mzn-stat: 2AutonomousSearchNumPredicatesAdded=22
%%%mzn-stat: 2AutonomousSearchAverageSizeOfHeap=0.2619047619047619
%%%mzn-stat: 2AutonomousSearchNumAssignedPredicatesEncountered=22
%%%mzn-stat-end
maxleg = 708;
succ = array1d(1..20,[2, 3, 7, 5, 17, 19, 12, 15, 10, 13, 9, 6, 16, 11, 20, 4, 1, 14, 8, 18]);
% time elapsed: 12.52 s
----------
==========
% time elapsed: 12.55 s
%%%mzn-stat: initTime=0.079092843
%%%mzn-stat: objective=708
%%%mzn-stat: nodes=3192
%%%mzn-stat: restarts=0
%%%mzn-stat: peakDepth=89
%%%mzn-stat: solveTime=0.442029795
%%%mzn-stat: variables=230
%%%mzn-stat: propagators=144
%%%mzn-stat: failures=2881
%%%mzn-stat: propagations=72257
%%%mzn-stat: nogoods=2881
%%%mzn-stat: numAtomicConstraintsPropagated=0
%%%mzn-stat: circuitNumber1PropagationsTotal=13816
%%%mzn-stat: circuitNumber1CircuitConflicts=2430
%%%mzn-stat: circuitNumber1AlldiffConflicts=10
%%%mzn-stat: circuitNumber1TotalFixedEdgesAtConflict=39952
%%%mzn-stat: circuitNumber1NumberOfConflicts=2440
%%%mzn-stat: circuitNumber1GacPrunings=18772
%%%mzn-stat: circuitNumber1PropagationsThatGacPruned=7223
%%%mzn-stat: circuitNumber1TotalPruningHallSetSize=46518
%%%mzn-stat: circuitNumber1NumberOfPruningExplanations=18772
%%%mzn-stat: circuitNumber1MaxPruningHallSetSize=17
%%%mzn-stat: circuitNumber1TotalSccSizeAtPruning=27511
%%%mzn-stat: circuitNumber1NumberOfSccPruningCalls=7223
%%%mzn-stat: circuitNumber1TotalVarsInvolvedInPruning=15732
%%%mzn-stat: circuitNumber1MaxValuesPrunedFromSingleVar=5
%%%mzn-stat: circuitNumber1HallCircuitChecks=21552
%%%mzn-stat: circuitNumber1HallCircuitPrunings=2311
%%%mzn-stat: circuitNumber1CircuitPreventPrunings=7002
%%%mzn-stat: AverageConflictSize=14.721971537660535
%%%mzn-stat: NumUnitNogoodsLearned=1
%%%mzn-stat: AverageLearnedNogoodLength=9.60812217979868
%%%mzn-stat: AverageBacktrackAmount=0
%%%mzn-stat: AverageLbd=5.601874349184311
%%%mzn-stat: 2AutonomousSearchNumBackupCalled=83
%%%mzn-stat: 2AutonomousSearchNumPredicatesRemoved=0
%%%mzn-stat: 2AutonomousSearchNumCalls=84
%%%mzn-stat: 2AutonomousSearchNumPredicatesAdded=562
%%%mzn-stat: 2AutonomousSearchAverageSizeOfHeap=0.2619047619047619
%%%mzn-stat: 2AutonomousSearchNumAssignedPredicatesEncountered=22
%%%mzn-stat-end
